
Gurobi 7.0.2 (linux64) logging started Sun Dec 22 15:28:57 2019


Gurobi 7.0.2 (linux64) logging started Sun Dec 22 15:29:08 2019


Gurobi 7.0.2 (linux64) logging started Sun Dec 22 15:29:47 2019


Gurobi 7.0.2 (linux64) logging started Sun Dec 22 15:32:42 2019


Gurobi 7.0.2 (linux64) logging started Sun Dec 22 15:35:48 2019


Gurobi 7.0.2 (linux64) logging started Sun Dec 22 15:35:57 2019


Gurobi 7.0.2 (linux64) logging started Mon Dec 23 09:47:20 2019


Gurobi 7.0.2 (linux64) logging started Mon Dec 23 09:47:35 2019


Gurobi 7.0.2 (linux64) logging started Mon Dec 23 09:48:48 2019


Gurobi 7.0.2 (linux64) logging started Mon Dec 23 09:48:52 2019


Gurobi 7.0.2 (linux64) logging started Mon Dec 23 09:51:30 2019


Gurobi 7.0.2 (linux64) logging started Mon Dec 23 09:52:23 2019


Gurobi 7.0.2 (linux64) logging started Mon Dec 23 12:24:12 2019


Gurobi 7.0.2 (linux64) logging started Mon Dec 23 12:24:17 2019


Gurobi 7.0.2 (linux64) logging started Mon Dec 23 12:24:20 2019


Gurobi 7.0.2 (linux64) logging started Mon Dec 23 12:24:29 2019


Gurobi 7.0.2 (linux64) logging started Mon Dec 23 12:27:48 2019


Gurobi 7.0.2 (linux64) logging started Mon Dec 23 12:27:53 2019


Gurobi 7.0.2 (linux64) logging started Mon Dec 23 12:27:55 2019


Gurobi 7.0.2 (linux64) logging started Mon Dec 23 12:29:02 2019


Gurobi 7.0.2 (linux64) logging started Mon Dec 23 12:29:50 2019


Gurobi 7.0.2 (linux64) logging started Mon Dec 23 12:32:35 2019


Gurobi 7.0.2 (linux64) logging started Mon Dec 23 12:32:47 2019


Gurobi 7.0.2 (linux64) logging started Mon Dec 23 12:34:14 2019


Gurobi 7.0.2 (linux64) logging started Mon Dec 23 12:35:19 2019


Gurobi 7.0.2 (linux64) logging started Mon Dec 23 13:21:56 2019


Gurobi 7.0.2 (linux64) logging started Mon Dec 23 13:21:58 2019


Gurobi 7.0.2 (linux64) logging started Mon Dec 23 13:22:27 2019


Gurobi 7.0.2 (linux64) logging started Mon Dec 23 13:23:13 2019


Gurobi 7.0.2 (linux64) logging started Mon Dec 23 13:26:54 2019


Gurobi 7.0.2 (linux64) logging started Mon Dec 23 13:33:51 2019


Gurobi 7.0.2 (linux64) logging started Mon Dec 23 13:34:38 2019


Gurobi 7.0.2 (linux64) logging started Mon Dec 23 13:35:59 2019


Gurobi 7.0.2 (linux64) logging started Mon Dec 23 13:36:41 2019


Gurobi 7.0.2 (linux64) logging started Mon Dec 23 13:38:06 2019


Gurobi 7.0.2 (linux64) logging started Mon Dec 23 13:38:15 2019


Gurobi 7.0.2 (linux64) logging started Mon Dec 23 13:38:43 2019


Gurobi 7.0.2 (linux64) logging started Mon Dec 23 13:40:37 2019


Gurobi 7.0.2 (linux64) logging started Mon Dec 23 13:43:53 2019


Gurobi 7.0.2 (linux64) logging started Mon Dec 23 13:45:25 2019


Gurobi 7.0.2 (linux64) logging started Mon Dec 23 13:53:46 2019


Gurobi 7.0.2 (linux64) logging started Mon Dec 23 13:53:52 2019


Gurobi 7.0.2 (linux64) logging started Mon Dec 23 13:53:58 2019


Gurobi 7.0.2 (linux64) logging started Mon Dec 23 13:55:03 2019


Gurobi 7.0.2 (linux64) logging started Mon Dec 23 13:55:21 2019


Gurobi 7.0.2 (linux64) logging started Mon Dec 23 13:55:32 2019


Gurobi 7.0.2 (linux64) logging started Mon Dec 23 13:56:13 2019


Gurobi 7.0.2 (linux64) logging started Mon Dec 23 13:56:36 2019


Gurobi 7.0.2 (linux64) logging started Mon Dec 23 13:57:23 2019


Gurobi 7.0.2 (linux64) logging started Mon Dec 23 13:58:06 2019


Gurobi 7.0.2 (linux64) logging started Mon Dec 23 13:58:12 2019


Gurobi 7.0.2 (linux64) logging started Mon Dec 23 13:58:15 2019


Gurobi 7.0.2 (linux64) logging started Mon Dec 23 14:08:17 2019


Gurobi 7.0.2 (linux64) logging started Mon Dec 23 14:08:17 2019


Gurobi 7.0.2 (linux64) logging started Mon Dec 23 14:08:17 2019


Gurobi 7.0.2 (linux64) logging started Mon Dec 23 14:08:17 2019


Gurobi 7.0.2 (linux64) logging started Mon Dec 23 14:08:17 2019


Gurobi 7.0.2 (linux64) logging started Mon Dec 23 14:08:18 2019


Gurobi 7.0.2 (linux64) logging started Mon Dec 23 14:08:18 2019


Gurobi 7.0.2 (linux64) logging started Mon Dec 23 14:09:52 2019


Gurobi 7.0.2 (linux64) logging started Mon Dec 23 14:09:56 2019


Gurobi 7.0.2 (linux64) logging started Mon Dec 23 14:09:58 2019


Gurobi 7.0.2 (linux64) logging started Mon Dec 23 14:10:00 2019


Gurobi 7.0.2 (linux64) logging started Mon Dec 23 14:10:47 2019


Gurobi 7.0.2 (linux64) logging started Mon Dec 23 14:11:02 2019


Gurobi 7.0.2 (linux64) logging started Mon Dec 23 14:11:06 2019


Gurobi 7.0.2 (linux64) logging started Mon Dec 23 14:11:23 2019


Gurobi 7.0.2 (linux64) logging started Mon Dec 23 14:11:25 2019


Gurobi 7.0.2 (linux64) logging started Mon Dec 23 14:11:25 2019


Gurobi 7.0.2 (linux64) logging started Mon Dec 23 14:11:26 2019


Gurobi 7.0.2 (linux64) logging started Mon Dec 23 14:11:32 2019


Gurobi 7.0.2 (linux64) logging started Mon Dec 23 14:11:33 2019


Gurobi 7.0.2 (linux64) logging started Mon Dec 23 14:11:35 2019


Gurobi 7.0.2 (linux64) logging started Mon Dec 23 14:11:48 2019


Gurobi 7.0.2 (linux64) logging started Mon Dec 23 14:11:50 2019


Gurobi 7.0.2 (linux64) logging started Mon Dec 23 14:11:51 2019


Gurobi 7.0.2 (linux64) logging started Mon Dec 23 14:11:52 2019


Gurobi 7.0.2 (linux64) logging started Mon Dec 23 14:11:56 2019


Gurobi 7.0.2 (linux64) logging started Mon Dec 23 14:11:57 2019


Gurobi 7.0.2 (linux64) logging started Mon Dec 23 14:11:58 2019


Gurobi 7.0.2 (linux64) logging started Mon Dec 23 14:12:43 2019


Gurobi 7.0.2 (linux64) logging started Mon Dec 23 14:12:44 2019


Gurobi 7.0.2 (linux64) logging started Mon Dec 23 14:12:44 2019


Gurobi 7.0.2 (linux64) logging started Mon Dec 23 14:12:44 2019


Gurobi 7.0.2 (linux64) logging started Mon Dec 23 14:12:45 2019


Gurobi 7.0.2 (linux64) logging started Mon Dec 23 14:12:46 2019


Gurobi 7.0.2 (linux64) logging started Mon Dec 23 14:12:49 2019


Gurobi 7.0.2 (linux64) logging started Mon Dec 23 14:12:49 2019


Gurobi 7.0.2 (linux64) logging started Mon Dec 23 18:08:34 2019


Gurobi 7.0.2 (linux64) logging started Tue Dec 24 08:19:59 2019


Gurobi 7.0.2 (linux64) logging started Tue Dec 24 08:19:59 2019


Gurobi 7.0.2 (linux64) logging started Tue Dec 24 08:19:59 2019


Gurobi 7.0.2 (linux64) logging started Tue Dec 24 08:19:59 2019


Gurobi 7.0.2 (linux64) logging started Tue Dec 24 08:20:30 2019


Gurobi 7.0.2 (linux64) logging started Tue Dec 24 08:20:37 2019


Gurobi 7.0.2 (linux64) logging started Tue Dec 24 08:20:37 2019


Gurobi 7.0.2 (linux64) logging started Tue Dec 24 08:20:37 2019


Gurobi 7.0.2 (linux64) logging started Tue Dec 24 10:43:23 2019


Gurobi 7.0.2 (linux64) logging started Tue Dec 24 10:43:23 2019


Gurobi 7.0.2 (linux64) logging started Tue Dec 24 10:43:23 2019


Gurobi 7.0.2 (linux64) logging started Tue Dec 24 10:43:24 2019


Gurobi 7.0.2 (linux64) logging started Tue Dec 24 10:43:27 2019


Gurobi 7.0.2 (linux64) logging started Tue Dec 24 10:43:27 2019


Gurobi 7.0.2 (linux64) logging started Tue Dec 24 10:43:27 2019


Gurobi 7.0.2 (linux64) logging started Tue Dec 24 10:43:28 2019


Gurobi 7.0.2 (linux64) logging started Tue Dec 24 10:43:31 2019


Gurobi 7.0.2 (linux64) logging started Tue Dec 24 10:43:32 2019


Gurobi 7.0.2 (linux64) logging started Tue Dec 24 10:43:32 2019


Gurobi 7.0.2 (linux64) logging started Tue Dec 24 10:43:33 2019


Gurobi 7.0.2 (linux64) logging started Tue Dec 24 10:43:39 2019


Gurobi 7.0.2 (linux64) logging started Tue Dec 24 10:43:39 2019


Gurobi 7.0.2 (linux64) logging started Tue Dec 24 10:43:39 2019


Gurobi 7.0.2 (linux64) logging started Tue Dec 24 10:43:39 2019


Gurobi 7.0.2 (linux64) logging started Tue Dec 24 10:43:39 2019


Gurobi 7.0.2 (linux64) logging started Tue Dec 24 10:43:39 2019


Gurobi 7.0.2 (linux64) logging started Tue Dec 24 10:43:40 2019


Gurobi 7.0.2 (linux64) logging started Tue Dec 24 10:43:40 2019


Gurobi 7.0.2 (linux64) logging started Tue Dec 24 10:43:41 2019


Gurobi 7.0.2 (linux64) logging started Tue Dec 24 10:43:42 2019


Gurobi 7.0.2 (linux64) logging started Tue Dec 24 10:43:43 2019


Gurobi 7.0.2 (linux64) logging started Tue Dec 24 10:43:43 2019


Gurobi 7.0.2 (linux64) logging started Tue Dec 24 10:43:46 2019


Gurobi 7.0.2 (linux64) logging started Tue Dec 24 10:43:46 2019


Gurobi 7.0.2 (linux64) logging started Tue Dec 24 10:43:46 2019


Gurobi 7.0.2 (linux64) logging started Tue Dec 24 10:43:46 2019


Gurobi 7.0.2 (linux64) logging started Tue Dec 24 10:51:58 2019


Gurobi 7.0.2 (linux64) logging started Tue Dec 24 10:51:58 2019


Gurobi 7.0.2 (linux64) logging started Tue Dec 24 10:51:58 2019


Gurobi 7.0.2 (linux64) logging started Tue Dec 24 10:51:58 2019


Gurobi 7.0.2 (linux64) logging started Tue Dec 24 10:52:05 2019


Gurobi 7.0.2 (linux64) logging started Tue Dec 24 10:52:05 2019


Gurobi 7.0.2 (linux64) logging started Tue Dec 24 10:52:06 2019


Gurobi 7.0.2 (linux64) logging started Tue Dec 24 10:52:06 2019


Gurobi 7.0.2 (linux64) logging started Tue Dec 24 10:52:15 2019


Gurobi 7.0.2 (linux64) logging started Tue Dec 24 10:52:20 2019


Gurobi 7.0.2 (linux64) logging started Tue Dec 24 10:52:24 2019


Gurobi 7.0.2 (linux64) logging started Tue Dec 24 10:52:29 2019


Gurobi 7.0.2 (linux64) logging started Tue Dec 24 10:53:01 2019


Gurobi 7.0.2 (linux64) logging started Tue Dec 24 10:53:01 2019


Gurobi 7.0.2 (linux64) logging started Tue Dec 24 10:53:01 2019


Gurobi 7.0.2 (linux64) logging started Tue Dec 24 10:53:01 2019


Gurobi 7.0.2 (linux64) logging started Tue Dec 24 10:53:22 2019


Gurobi 7.0.2 (linux64) logging started Tue Dec 24 10:53:22 2019


Gurobi 7.0.2 (linux64) logging started Tue Dec 24 10:53:22 2019


Gurobi 7.0.2 (linux64) logging started Tue Dec 24 10:53:22 2019


Gurobi 7.0.2 (linux64) logging started Tue Dec 24 10:54:30 2019


Gurobi 7.0.2 (linux64) logging started Tue Dec 24 10:54:30 2019


Gurobi 7.0.2 (linux64) logging started Tue Dec 24 10:54:30 2019


Gurobi 7.0.2 (linux64) logging started Tue Dec 24 10:54:30 2019


Gurobi 7.0.2 (linux64) logging started Tue Dec 24 10:58:51 2019


Gurobi 7.0.2 (linux64) logging started Tue Dec 24 10:58:51 2019


Gurobi 7.0.2 (linux64) logging started Tue Dec 24 10:58:51 2019


Gurobi 7.0.2 (linux64) logging started Tue Dec 24 10:58:51 2019


Gurobi 7.0.2 (linux64) logging started Tue Dec 24 10:58:52 2019


Gurobi 7.0.2 (linux64) logging started Tue Dec 24 10:58:52 2019


Gurobi 7.0.2 (linux64) logging started Tue Dec 24 10:58:52 2019


Gurobi 7.0.2 (linux64) logging started Tue Dec 24 10:58:52 2019


Gurobi 7.0.2 (linux64) logging started Tue Dec 24 10:58:53 2019


Gurobi 7.0.2 (linux64) logging started Tue Dec 24 10:58:54 2019


Gurobi 7.0.2 (linux64) logging started Tue Dec 24 10:58:55 2019


Gurobi 7.0.2 (linux64) logging started Tue Dec 24 10:58:56 2019


Gurobi 7.0.2 (linux64) logging started Tue Dec 24 10:58:58 2019


Gurobi 7.0.2 (linux64) logging started Tue Dec 24 10:58:59 2019


Gurobi 7.0.2 (linux64) logging started Tue Dec 24 10:58:59 2019


Gurobi 7.0.2 (linux64) logging started Tue Dec 24 10:58:59 2019


Gurobi 7.0.2 (linux64) logging started Tue Dec 24 11:00:12 2019


Gurobi 7.0.2 (linux64) logging started Tue Dec 24 11:00:12 2019


Gurobi 7.0.2 (linux64) logging started Tue Dec 24 11:00:12 2019


Gurobi 7.0.2 (linux64) logging started Tue Dec 24 11:00:12 2019


Gurobi 7.0.2 (linux64) logging started Tue Dec 24 11:00:13 2019


Gurobi 7.0.2 (linux64) logging started Tue Dec 24 11:00:13 2019


Gurobi 7.0.2 (linux64) logging started Tue Dec 24 11:00:13 2019


Gurobi 7.0.2 (linux64) logging started Tue Dec 24 11:00:13 2019


Gurobi 7.0.2 (linux64) logging started Wed Jan  1 09:00:52 2020


Gurobi 7.0.2 (linux64) logging started Wed Jan  1 09:00:53 2020


Gurobi 7.0.2 (linux64) logging started Wed Jan  1 09:02:20 2020


Gurobi 7.0.2 (linux64) logging started Wed Jan  1 09:02:20 2020


Gurobi 7.0.2 (linux64) logging started Wed Jan  1 09:02:20 2020


Gurobi 7.0.2 (linux64) logging started Wed Jan  1 09:02:20 2020


Gurobi 7.0.2 (linux64) logging started Wed Jan  1 09:02:20 2020


Gurobi 7.0.2 (linux64) logging started Wed Jan  1 09:02:21 2020


Gurobi 7.0.2 (linux64) logging started Wed Jan  1 09:02:21 2020


Gurobi 7.0.2 (linux64) logging started Wed Jan  1 09:02:21 2020


Gurobi 7.0.2 (linux64) logging started Wed Jan  1 09:02:22 2020


Gurobi 7.0.2 (linux64) logging started Wed Jan  1 10:13:47 2020


Gurobi 7.0.2 (linux64) logging started Wed Jan  1 10:14:37 2020


Gurobi 7.0.2 (linux64) logging started Wed Jan  1 10:14:38 2020


Gurobi 7.0.2 (linux64) logging started Wed Jan  1 10:14:38 2020


Gurobi 7.0.2 (linux64) logging started Wed Jan  1 10:14:38 2020


Gurobi 7.0.2 (linux64) logging started Wed Jan  1 10:14:38 2020


Gurobi 7.0.2 (linux64) logging started Wed Jan  1 10:14:38 2020


Gurobi 7.0.2 (linux64) logging started Wed Jan  1 10:14:39 2020


Gurobi 7.0.2 (linux64) logging started Wed Jan  1 10:14:39 2020


Gurobi 7.0.2 (linux64) logging started Wed Jan  1 10:25:09 2020


Gurobi 7.0.2 (linux64) logging started Wed Jan  1 10:25:10 2020


Gurobi 7.0.2 (linux64) logging started Wed Jan  1 10:25:10 2020


Gurobi 7.0.2 (linux64) logging started Wed Jan  1 10:25:10 2020


Gurobi 7.0.2 (linux64) logging started Wed Jan  1 10:25:30 2020


Gurobi 7.0.2 (linux64) logging started Wed Jan  1 10:25:33 2020


Gurobi 7.0.2 (linux64) logging started Wed Jan  1 10:25:35 2020


Gurobi 7.0.2 (linux64) logging started Wed Jan  1 10:25:37 2020


Gurobi 7.0.2 (linux64) logging started Wed Jan  1 10:25:52 2020


Gurobi 7.0.2 (linux64) logging started Wed Jan  1 10:25:53 2020


Gurobi 7.0.2 (linux64) logging started Wed Jan  1 10:25:53 2020


Gurobi 7.0.2 (linux64) logging started Wed Jan  1 10:25:54 2020


Gurobi 7.0.2 (linux64) logging started Wed Jan  1 13:24:40 2020


Gurobi 7.0.2 (linux64) logging started Wed Jan  1 13:24:40 2020


Gurobi 7.0.2 (linux64) logging started Wed Jan  1 13:24:40 2020


Gurobi 7.0.2 (linux64) logging started Wed Jan  1 13:24:40 2020


Gurobi 7.0.2 (linux64) logging started Wed Jan  1 13:24:41 2020


Gurobi 7.0.2 (linux64) logging started Wed Jan  1 13:24:41 2020


Gurobi 7.0.2 (linux64) logging started Wed Jan  1 13:24:41 2020


Gurobi 7.0.2 (linux64) logging started Wed Jan  1 13:24:41 2020


Gurobi 7.0.2 (linux64) logging started Wed Jan  1 13:25:31 2020


Gurobi 7.0.2 (linux64) logging started Wed Jan  1 13:25:31 2020


Gurobi 7.0.2 (linux64) logging started Wed Jan  1 13:25:31 2020


Gurobi 7.0.2 (linux64) logging started Wed Jan  1 13:25:31 2020


Gurobi 7.0.2 (linux64) logging started Wed Jan  1 13:25:32 2020


Gurobi 7.0.2 (linux64) logging started Wed Jan  1 13:25:32 2020


Gurobi 7.0.2 (linux64) logging started Wed Jan  1 13:25:32 2020


Gurobi 7.0.2 (linux64) logging started Wed Jan  1 13:25:32 2020


Gurobi 7.0.2 (linux64) logging started Wed Jan  1 13:45:46 2020


Gurobi 7.0.2 (linux64) logging started Wed Jan  1 13:45:46 2020


Gurobi 7.0.2 (linux64) logging started Wed Jan  1 13:45:47 2020


Gurobi 7.0.2 (linux64) logging started Wed Jan  1 13:45:47 2020


Gurobi 7.0.2 (linux64) logging started Wed Jan  1 13:46:07 2020


Gurobi 7.0.2 (linux64) logging started Wed Jan  1 13:46:10 2020


Gurobi 7.0.2 (linux64) logging started Wed Jan  1 13:46:13 2020


Gurobi 7.0.2 (linux64) logging started Wed Jan  1 13:46:15 2020


Gurobi 7.0.2 (linux64) logging started Wed Jan  1 13:47:27 2020


Gurobi 7.0.2 (linux64) logging started Wed Jan  1 13:47:27 2020


Gurobi 7.0.2 (linux64) logging started Wed Jan  1 13:47:28 2020


Gurobi 7.0.2 (linux64) logging started Wed Jan  1 13:47:28 2020


Gurobi 7.0.2 (linux64) logging started Wed Jan  1 13:47:28 2020


Gurobi 7.0.2 (linux64) logging started Wed Jan  1 13:47:28 2020


Gurobi 7.0.2 (linux64) logging started Wed Jan  1 13:47:28 2020


Gurobi 7.0.2 (linux64) logging started Wed Jan  1 13:47:29 2020


Gurobi 7.0.2 (linux64) logging started Wed Jan  1 13:52:10 2020


Gurobi 7.0.2 (linux64) logging started Wed Jan  1 13:52:18 2020


Gurobi 7.0.2 (linux64) logging started Wed Jan  1 13:57:37 2020


Gurobi 7.0.2 (linux64) logging started Wed Jan  1 13:57:50 2020


Gurobi 7.0.2 (linux64) logging started Wed Jan  1 13:57:50 2020


Gurobi 7.0.2 (linux64) logging started Wed Jan  1 13:57:50 2020


Gurobi 7.0.2 (linux64) logging started Wed Jan  1 13:57:51 2020


Gurobi 7.0.2 (linux64) logging started Wed Jan  1 13:58:58 2020


Gurobi 7.0.2 (linux64) logging started Wed Jan  1 13:59:01 2020


Gurobi 7.0.2 (linux64) logging started Wed Jan  1 13:59:01 2020


Gurobi 7.0.2 (linux64) logging started Wed Jan  1 13:59:01 2020


Gurobi 7.0.2 (linux64) logging started Wed Jan  1 14:00:37 2020


Gurobi 7.0.2 (linux64) logging started Wed Jan  1 14:00:37 2020


Gurobi 7.0.2 (linux64) logging started Wed Jan  1 14:00:37 2020


Gurobi 7.0.2 (linux64) logging started Wed Jan  1 14:00:37 2020


Gurobi 7.0.2 (linux64) logging started Wed Jan  1 14:00:38 2020


Gurobi 7.0.2 (linux64) logging started Wed Jan  1 14:00:38 2020


Gurobi 7.0.2 (linux64) logging started Wed Jan  1 14:00:38 2020


Gurobi 7.0.2 (linux64) logging started Wed Jan  1 14:00:38 2020


Gurobi 7.0.2 (linux64) logging started Sun Jan  5 12:07:24 2020


Gurobi 7.0.2 (linux64) logging started Sun Jan  5 12:07:24 2020


Gurobi 7.0.2 (linux64) logging started Sun Jan  5 12:07:24 2020


Gurobi 7.0.2 (linux64) logging started Sun Jan  5 12:07:24 2020


Gurobi 7.0.2 (linux64) logging started Sun Jan  5 12:07:25 2020


Gurobi 7.0.2 (linux64) logging started Sun Jan  5 12:07:25 2020


Gurobi 7.0.2 (linux64) logging started Sun Jan  5 12:07:25 2020


Gurobi 7.0.2 (linux64) logging started Sun Jan  5 12:07:25 2020


Gurobi 7.0.2 (linux64) logging started Sun Jan  5 13:43:24 2020


Gurobi 7.0.2 (linux64) logging started Sun Jan  5 13:43:54 2020


Gurobi 7.0.2 (linux64) logging started Sun Jan  5 13:43:55 2020


Gurobi 7.0.2 (linux64) logging started Sun Jan  5 13:43:55 2020


Gurobi 7.0.2 (linux64) logging started Sun Jan  5 13:43:55 2020


Gurobi 7.0.2 (linux64) logging started Sun Jan  5 13:43:55 2020


Gurobi 7.0.2 (linux64) logging started Sun Jan  5 13:43:55 2020


Gurobi 7.0.2 (linux64) logging started Sun Jan  5 13:43:56 2020


Gurobi 7.0.2 (linux64) logging started Sun Jan  5 13:43:56 2020


Gurobi 7.0.2 (linux64) logging started Sun Jan  5 14:06:24 2020


Gurobi 7.0.2 (linux64) logging started Sun Jan  5 14:06:57 2020


Gurobi 7.0.2 (linux64) logging started Sun Jan  5 15:06:28 2020


Gurobi 7.0.2 (linux64) logging started Sun Jan  5 15:06:35 2020


Gurobi 7.0.2 (linux64) logging started Sun Jan  5 15:06:57 2020


Gurobi 7.0.2 (linux64) logging started Sun Jan  5 15:07:00 2020


Gurobi 7.0.2 (linux64) logging started Sun Jan  5 15:08:28 2020


Gurobi 7.0.2 (linux64) logging started Sun Jan  5 15:08:36 2020


Gurobi 7.0.2 (linux64) logging started Sun Jan  5 15:09:10 2020


Gurobi 7.0.2 (linux64) logging started Sun Jan  5 15:09:13 2020


Gurobi 7.0.2 (linux64) logging started Sun Jan  5 15:14:00 2020


Gurobi 7.0.2 (linux64) logging started Sun Jan  5 15:14:10 2020


Gurobi 7.0.2 (linux64) logging started Sun Jan  5 15:14:47 2020


Gurobi 7.0.2 (linux64) logging started Sun Jan  5 15:15:13 2020


Gurobi 7.0.2 (linux64) logging started Sun Jan  5 15:16:22 2020


Gurobi 7.0.2 (linux64) logging started Sun Jan  5 15:16:32 2020


Gurobi 7.0.2 (linux64) logging started Sun Jan  5 15:17:08 2020


Gurobi 7.0.2 (linux64) logging started Sun Jan  5 15:18:44 2020


Gurobi 7.0.2 (linux64) logging started Sun Jan  5 15:19:46 2020


Gurobi 7.0.2 (linux64) logging started Sun Jan  5 15:20:19 2020


Gurobi 7.0.2 (linux64) logging started Sun Jan  5 15:21:11 2020


Gurobi 7.0.2 (linux64) logging started Sun Jan  5 15:21:19 2020


Gurobi 7.0.2 (linux64) logging started Sun Jan  5 15:21:41 2020


Gurobi 7.0.2 (linux64) logging started Sun Jan  5 15:21:43 2020


Gurobi 7.0.2 (linux64) logging started Sun Jan  5 15:22:05 2020


Gurobi 7.0.2 (linux64) logging started Sun Jan  5 15:22:38 2020


Gurobi 7.0.2 (linux64) logging started Sun Jan  5 16:53:38 2020


Gurobi 7.0.2 (linux64) logging started Sun Jan  5 16:53:38 2020


Gurobi 7.0.2 (linux64) logging started Sun Jan  5 16:53:39 2020


Gurobi 7.0.2 (linux64) logging started Sun Jan  5 16:53:39 2020


Gurobi 7.0.2 (linux64) logging started Sun Jan  5 16:53:58 2020


Gurobi 7.0.2 (linux64) logging started Sun Jan  5 16:54:01 2020


Gurobi 7.0.2 (linux64) logging started Sun Jan  5 16:54:04 2020


Gurobi 7.0.2 (linux64) logging started Sun Jan  5 16:54:06 2020


Gurobi 7.0.2 (linux64) logging started Sun Jan  5 16:54:21 2020


Gurobi 7.0.2 (linux64) logging started Sun Jan  5 16:54:21 2020


Gurobi 7.0.2 (linux64) logging started Sun Jan  5 16:54:22 2020


Gurobi 7.0.2 (linux64) logging started Sun Jan  5 16:54:22 2020


Gurobi 7.0.2 (linux64) logging started Sun Jan  5 16:55:03 2020


Gurobi 7.0.2 (linux64) logging started Sun Jan  5 16:55:03 2020


Gurobi 7.0.2 (linux64) logging started Sun Jan  5 16:55:03 2020


Gurobi 7.0.2 (linux64) logging started Sun Jan  5 16:55:03 2020


Gurobi 7.0.2 (linux64) logging started Sun Jan  5 16:55:53 2020


Gurobi 7.0.2 (linux64) logging started Sun Jan  5 16:55:53 2020


Gurobi 7.0.2 (linux64) logging started Sun Jan  5 16:55:53 2020


Gurobi 7.0.2 (linux64) logging started Sun Jan  5 16:55:54 2020


Gurobi 7.0.2 (linux64) logging started Sun Jan  5 16:56:47 2020


Gurobi 7.0.2 (linux64) logging started Sun Jan  5 16:56:47 2020


Gurobi 7.0.2 (linux64) logging started Sun Jan  5 16:56:47 2020


Gurobi 7.0.2 (linux64) logging started Sun Jan  5 16:56:47 2020


Gurobi 7.0.2 (linux64) logging started Sun Jan  5 17:01:48 2020


Gurobi 7.0.2 (linux64) logging started Sun Jan  5 17:01:48 2020


Gurobi 7.0.2 (linux64) logging started Sun Jan  5 17:01:48 2020


Gurobi 7.0.2 (linux64) logging started Sun Jan  5 17:01:48 2020


Gurobi 7.0.2 (linux64) logging started Sun Jan  5 17:04:07 2020


Gurobi 7.0.2 (linux64) logging started Sun Jan  5 17:04:08 2020


Gurobi 7.0.2 (linux64) logging started Sun Jan  5 17:04:08 2020


Gurobi 7.0.2 (linux64) logging started Sun Jan  5 17:04:09 2020


Gurobi 7.0.2 (linux64) logging started Sun Jan  5 17:09:03 2020


Gurobi 7.0.2 (linux64) logging started Sun Jan  5 17:09:03 2020


Gurobi 7.0.2 (linux64) logging started Sun Jan  5 17:09:03 2020


Gurobi 7.0.2 (linux64) logging started Sun Jan  5 17:09:03 2020


Gurobi 7.0.2 (linux64) logging started Sun Jan  5 17:13:54 2020


Gurobi 7.0.2 (linux64) logging started Sun Jan  5 17:13:56 2020


Gurobi 7.0.2 (linux64) logging started Sun Jan  5 17:13:57 2020


Gurobi 7.0.2 (linux64) logging started Sun Jan  5 17:13:58 2020


Gurobi 7.0.2 (linux64) logging started Sun Jan  5 17:14:45 2020


Gurobi 7.0.2 (linux64) logging started Sun Jan  5 17:23:10 2020


Gurobi 7.0.2 (linux64) logging started Sun Jan  5 17:31:30 2020


Gurobi 7.0.2 (linux64) logging started Sun Jan  5 17:39:48 2020


Gurobi 7.0.2 (linux64) logging started Sun Jan  5 17:53:00 2020


Gurobi 7.0.2 (linux64) logging started Sun Jan  5 17:53:05 2020


Gurobi 7.0.2 (linux64) logging started Sun Jan  5 17:53:10 2020


Gurobi 7.0.2 (linux64) logging started Sun Jan  5 17:53:14 2020


Gurobi 7.0.2 (linux64) logging started Sun Jan  5 17:54:46 2020


Gurobi 7.0.2 (linux64) logging started Sun Jan  5 17:54:46 2020


Gurobi 7.0.2 (linux64) logging started Sun Jan  5 17:54:46 2020


Gurobi 7.0.2 (linux64) logging started Sun Jan  5 17:54:47 2020


Gurobi 7.0.2 (linux64) logging started Sun Jan  5 17:56:27 2020


Gurobi 7.0.2 (linux64) logging started Sun Jan  5 17:56:27 2020


Gurobi 7.0.2 (linux64) logging started Sun Jan  5 17:56:27 2020


Gurobi 7.0.2 (linux64) logging started Sun Jan  5 17:56:27 2020


Gurobi 7.0.2 (linux64) logging started Sun Jan  5 17:58:30 2020


Gurobi 7.0.2 (linux64) logging started Sun Jan  5 17:58:40 2020


Gurobi 7.0.2 (linux64) logging started Sun Jan  5 17:58:44 2020


Gurobi 7.0.2 (linux64) logging started Sun Jan  5 17:58:48 2020


Gurobi 7.0.2 (linux64) logging started Sun Jan  5 18:02:39 2020


Gurobi 7.0.2 (linux64) logging started Sun Jan  5 18:02:39 2020


Gurobi 7.0.2 (linux64) logging started Sun Jan  5 18:02:39 2020


Gurobi 7.0.2 (linux64) logging started Sun Jan  5 18:02:39 2020


Gurobi 7.0.2 (linux64) logging started Mon Jan  6 08:58:26 2020


Gurobi 7.0.2 (linux64) logging started Mon Jan  6 08:58:27 2020


Gurobi 7.0.2 (linux64) logging started Mon Jan  6 08:58:27 2020


Gurobi 7.0.2 (linux64) logging started Mon Jan  6 08:58:27 2020


Gurobi 7.0.2 (linux64) logging started Mon Jan  6 08:58:27 2020


Gurobi 7.0.2 (linux64) logging started Mon Jan  6 08:58:27 2020


Gurobi 7.0.2 (linux64) logging started Mon Jan  6 08:58:28 2020


Gurobi 7.0.2 (linux64) logging started Mon Jan  6 08:58:28 2020


Gurobi 7.0.2 (linux64) logging started Mon Jan  6 08:59:52 2020


Gurobi 7.0.2 (linux64) logging started Mon Jan  6 08:59:52 2020


Gurobi 7.0.2 (linux64) logging started Mon Jan  6 08:59:52 2020


Gurobi 7.0.2 (linux64) logging started Mon Jan  6 08:59:52 2020


Gurobi 7.0.2 (linux64) logging started Mon Jan  6 08:59:53 2020


Gurobi 7.0.2 (linux64) logging started Mon Jan  6 08:59:53 2020


Gurobi 7.0.2 (linux64) logging started Mon Jan  6 08:59:53 2020


Gurobi 7.0.2 (linux64) logging started Mon Jan  6 08:59:53 2020


Gurobi 7.0.2 (linux64) logging started Mon Jan  6 09:12:49 2020


Gurobi 7.0.2 (linux64) logging started Mon Jan  6 09:12:49 2020


Gurobi 7.0.2 (linux64) logging started Mon Jan  6 09:12:49 2020


Gurobi 7.0.2 (linux64) logging started Mon Jan  6 09:12:49 2020


Gurobi 7.0.2 (linux64) logging started Mon Jan  6 09:12:50 2020


Gurobi 7.0.2 (linux64) logging started Mon Jan  6 09:12:50 2020


Gurobi 7.0.2 (linux64) logging started Mon Jan  6 09:12:50 2020


Gurobi 7.0.2 (linux64) logging started Mon Jan  6 09:12:50 2020


Gurobi 7.0.2 (linux64) logging started Mon Jan  6 09:12:52 2020


Gurobi 7.0.2 (linux64) logging started Mon Jan  6 09:12:53 2020


Gurobi 7.0.2 (linux64) logging started Mon Jan  6 09:12:53 2020


Gurobi 7.0.2 (linux64) logging started Mon Jan  6 09:12:54 2020


Gurobi 7.0.2 (linux64) logging started Mon Jan  6 09:12:56 2020


Gurobi 7.0.2 (linux64) logging started Mon Jan  6 09:12:56 2020


Gurobi 7.0.2 (linux64) logging started Mon Jan  6 09:12:56 2020


Gurobi 7.0.2 (linux64) logging started Mon Jan  6 09:12:56 2020


Gurobi 7.0.2 (linux64) logging started Mon Jan  6 09:17:49 2020


Gurobi 7.0.2 (linux64) logging started Mon Jan  6 09:17:49 2020


Gurobi 7.0.2 (linux64) logging started Mon Jan  6 09:17:49 2020


Gurobi 7.0.2 (linux64) logging started Mon Jan  6 09:17:50 2020


Gurobi 7.0.2 (linux64) logging started Mon Jan  6 09:17:51 2020


Gurobi 7.0.2 (linux64) logging started Mon Jan  6 09:17:52 2020


Gurobi 7.0.2 (linux64) logging started Mon Jan  6 09:17:52 2020


Gurobi 7.0.2 (linux64) logging started Mon Jan  6 09:17:53 2020


Gurobi 7.0.2 (linux64) logging started Mon Jan  6 09:21:57 2020


Gurobi 7.0.2 (linux64) logging started Mon Jan  6 09:21:57 2020


Gurobi 7.0.2 (linux64) logging started Mon Jan  6 09:21:58 2020


Gurobi 7.0.2 (linux64) logging started Mon Jan  6 09:21:58 2020


Gurobi 7.0.2 (linux64) logging started Mon Jan  6 11:17:55 2020


Gurobi 7.0.2 (linux64) logging started Mon Jan  6 11:17:58 2020


Gurobi 7.0.2 (linux64) logging started Mon Jan  6 11:17:59 2020


Gurobi 7.0.2 (linux64) logging started Mon Jan  6 11:18:00 2020


Gurobi 7.0.2 (linux64) logging started Mon Jan  6 11:18:33 2020


Gurobi 7.0.2 (linux64) logging started Mon Jan  6 11:19:39 2020


Gurobi 7.0.2 (linux64) logging started Mon Jan  6 11:20:30 2020


Gurobi 7.0.2 (linux64) logging started Mon Jan  6 11:21:06 2020


Gurobi 7.0.2 (linux64) logging started Mon Jan  6 11:22:21 2020


Gurobi 7.0.2 (linux64) logging started Mon Jan  6 11:22:55 2020


Gurobi 7.0.2 (linux64) logging started Mon Jan  6 11:23:08 2020


Gurobi 7.0.2 (linux64) logging started Mon Jan  6 11:23:19 2020


Gurobi 7.0.2 (linux64) logging started Mon Jan  6 11:28:51 2020


Gurobi 7.0.2 (linux64) logging started Mon Jan  6 11:28:51 2020


Gurobi 7.0.2 (linux64) logging started Mon Jan  6 11:28:52 2020


Gurobi 7.0.2 (linux64) logging started Mon Jan  6 11:28:52 2020


Gurobi 7.0.2 (linux64) logging started Mon Jan  6 11:33:57 2020


Gurobi 7.0.2 (linux64) logging started Mon Jan  6 11:33:58 2020


Gurobi 7.0.2 (linux64) logging started Mon Jan  6 11:33:58 2020


Gurobi 7.0.2 (linux64) logging started Mon Jan  6 11:33:58 2020


Gurobi 7.0.2 (linux64) logging started Mon Jan  6 11:40:02 2020


Gurobi 7.0.2 (linux64) logging started Mon Jan  6 11:40:02 2020


Gurobi 7.0.2 (linux64) logging started Mon Jan  6 11:40:02 2020


Gurobi 7.0.2 (linux64) logging started Mon Jan  6 11:40:03 2020


Gurobi 7.0.2 (linux64) logging started Mon Jan  6 13:15:25 2020


Gurobi 7.0.2 (linux64) logging started Mon Jan  6 13:15:38 2020


Gurobi 7.0.2 (linux64) logging started Mon Jan  6 13:15:42 2020


Gurobi 7.0.2 (linux64) logging started Mon Jan  6 13:15:46 2020


Gurobi 7.0.2 (linux64) logging started Mon Jan  6 13:20:36 2020


Gurobi 7.0.2 (linux64) logging started Mon Jan  6 13:48:31 2020


Gurobi 7.0.2 (linux64) logging started Mon Jan  6 13:48:35 2020


Gurobi 7.0.2 (linux64) logging started Mon Jan  6 13:48:38 2020


Gurobi 7.0.2 (linux64) logging started Mon Jan  6 13:48:41 2020


Gurobi 7.0.2 (linux64) logging started Mon Jan  6 13:58:17 2020


Gurobi 7.0.2 (linux64) logging started Mon Jan  6 13:58:31 2020


Gurobi 7.0.2 (linux64) logging started Mon Jan  6 13:58:38 2020


Gurobi 7.0.2 (linux64) logging started Mon Jan  6 13:58:44 2020


Gurobi 7.0.2 (linux64) logging started Mon Jan  6 14:10:59 2020


Gurobi 7.0.2 (linux64) logging started Mon Jan  6 14:11:03 2020


Gurobi 7.0.2 (linux64) logging started Mon Jan  6 14:11:05 2020


Gurobi 7.0.2 (linux64) logging started Mon Jan  6 14:11:07 2020


Gurobi 7.0.2 (linux64) logging started Mon Jan  6 14:34:27 2020


Gurobi 7.0.2 (linux64) logging started Mon Jan  6 14:34:35 2020


Gurobi 7.0.2 (linux64) logging started Mon Jan  6 14:34:58 2020


Gurobi 7.0.2 (linux64) logging started Mon Jan  6 14:35:00 2020


Gurobi 7.0.2 (linux64) logging started Mon Jan  6 14:35:21 2020


Gurobi 7.0.2 (linux64) logging started Mon Jan  6 14:35:54 2020


Gurobi 7.0.2 (linux64) logging started Tue Jan  7 08:00:08 2020


Gurobi 7.0.2 (linux64) logging started Tue Jan  7 08:18:50 2020


Gurobi 7.0.2 (linux64) logging started Tue Jan  7 08:19:25 2020


Gurobi 7.0.2 (linux64) logging started Tue Jan  7 08:19:43 2020


Gurobi 7.0.2 (linux64) logging started Tue Jan  7 08:20:36 2020


Gurobi 7.0.2 (linux64) logging started Tue Jan  7 08:20:42 2020


Gurobi 7.0.2 (linux64) logging started Tue Jan  7 08:21:22 2020


Gurobi 7.0.2 (linux64) logging started Tue Jan  7 08:21:22 2020


Gurobi 7.0.2 (linux64) logging started Tue Jan  7 08:21:23 2020


Gurobi 7.0.2 (linux64) logging started Tue Jan  7 08:21:23 2020


Gurobi 7.0.2 (linux64) logging started Tue Jan  7 08:24:14 2020


Gurobi 7.0.2 (linux64) logging started Tue Jan  7 10:32:41 2020


Gurobi 7.0.2 (linux64) logging started Tue Jan  7 10:36:48 2020


Gurobi 7.0.2 (linux64) logging started Tue Jan  7 10:59:15 2020


Gurobi 7.0.2 (linux64) logging started Tue Jan  7 10:59:23 2020


Gurobi 7.0.2 (linux64) logging started Tue Jan  7 10:59:45 2020


Gurobi 7.0.2 (linux64) logging started Tue Jan  7 10:59:48 2020


Gurobi 7.0.2 (linux64) logging started Tue Jan  7 10:59:54 2020


Gurobi 7.0.2 (linux64) logging started Tue Jan  7 11:00:24 2020


Gurobi 7.0.2 (linux64) logging started Tue Jan  7 11:03:44 2020


Gurobi 7.0.2 (linux64) logging started Tue Jan  7 11:03:54 2020


Gurobi 7.0.2 (linux64) logging started Tue Jan  7 11:30:05 2020


Gurobi 7.0.2 (linux64) logging started Tue Jan  7 11:30:26 2020


Gurobi 7.0.2 (linux64) logging started Tue Jan  7 11:31:08 2020


Gurobi 7.0.2 (linux64) logging started Tue Jan  7 11:56:58 2020


Gurobi 7.0.2 (linux64) logging started Tue Jan  7 12:00:19 2020


Gurobi 7.0.2 (linux64) logging started Tue Jan  7 12:00:59 2020

